54
120
95	1
93	4
92	1
90	2
88	2
87	1
85	2
84	3
82	3
81	1
80	2
79	1
78	3
77	1
76	1
75	1
74	3
73	2
72	2
70	1
69	2
67	1
65	2
63	3
61	1
59	1
56	1
55	1
52	3
51	2
50	2
49	1
47	2
46	1
45	1
43	2
42	1
40	1
39	2
38	1
37	3
36	4
35	1
33	1
30	2
28	3
26	3
24	1
21	1
20	3
18	3
17	2
16	4
13	1
